(declare-fun temp5789_1 () (_ BitVec 64))
(declare-fun temp5789_2 () (_ BitVec 64))
(declare-fun var77740 () (_ BitVec 64))
(declare-fun k!0 () Bool)
(declare-fun ARGNAME_filter_NAMEEND_DIM () (_ BitVec 64))
(declare-fun ARGNAME_data_format_NAMEEND_STRFMT () (_ BitVec 64))
(declare-fun temp5789_3 () (_ BitVec 64))
(declare-fun ARGNAME_out_backprop_NAMEEND_DIM () (_ BitVec 64))
(declare-fun var77770 () (_ BitVec 64))
(declare-fun temp5789_4 () (_ BitVec 64))
(declare-fun temp5789_5 () (_ BitVec 64))
(declare-fun ARGNAME_filter_NAMEEND_DIMSIZE
             ()
             (Array (_ BitVec 64) (_ BitVec 64)))
(declare-fun temp5789_6 () (_ BitVec 64))
(declare-fun temp5789_7 () (_ BitVec 64))
(declare-fun temp5789_8 () (_ BitVec 64))
(declare-fun temp5789_9 () (_ BitVec 64))
(declare-fun temp5789_10 () (_ BitVec 64))
(declare-fun temp5789_11 () (_ BitVec 64))
(declare-fun temp5789_12 () (_ BitVec 64))
(declare-fun temp5789_13 () (_ BitVec 64))
(declare-fun temp5789_14 () (_ BitVec 64))
(declare-fun temp5789_15 () (_ BitVec 64))
(declare-fun temp5789_16 () (_ BitVec 64))
(declare-fun temp5789_17 () (_ BitVec 64))
(declare-fun temp5789_18 () (_ BitVec 64))
(declare-fun var77799 () (_ BitVec 64))
(declare-fun temp5789_19 () (_ BitVec 64))
(declare-fun ARGNAME_out_backprop_NAMEEND_DIMSIZE
             ()
             (Array (_ BitVec 64) (_ BitVec 64)))
(declare-fun temp5789_20 () (_ BitVec 64))
(declare-fun temp5789_21 () (_ BitVec 64))
(declare-fun temp5789_22 () (_ BitVec 64))
(declare-fun temp5789_23 () (_ BitVec 64))
(declare-fun temp5789_24 () (_ BitVec 64))
(declare-fun temp5789_25 () (_ BitVec 64))
(declare-fun temp5789_26 () (_ BitVec 64))
(declare-fun temp5789_27 () (_ BitVec 64))
(declare-fun temp5789_28 () (_ BitVec 64))
(declare-fun temp5789_29 () (_ BitVec 64))
(declare-fun temp5789_30 () (_ BitVec 64))
(declare-fun temp5789_31 () (_ BitVec 64))
(declare-fun temp5789_32 () (_ BitVec 64))
(declare-fun var77832 () (_ BitVec 64))
(declare-fun temp5789_33 () (_ BitVec 64))
(declare-fun temp5789_34 () (_ BitVec 64))
(declare-fun var77833 () (_ BitVec 64))
(declare-fun var77834 () (_ BitVec 64))
(declare-fun temp5789_35 () (_ BitVec 64))
(declare-fun temp5789_36 () (_ BitVec 64))
(declare-fun var275510 () (_ BitVec 64))
(declare-fun temp5789_37 () (_ BitVec 64))
(declare-fun var275528 () (_ BitVec 64))
(declare-fun temp5789_38 () (_ BitVec 64))
(declare-fun temp5789_39 () (_ BitVec 64))
(declare-fun var406582 () (_ BitVec 64))
(declare-fun temp5789_40 () (_ BitVec 64))
(declare-fun var406600 () (_ BitVec 64))
(declare-fun temp5789_41 () (_ BitVec 64))
(declare-fun temp5789_42 () (_ BitVec 64))
(declare-fun var537654 () (_ BitVec 64))
(declare-fun temp5789_43 () (_ BitVec 64))
(declare-fun var537672 () (_ BitVec 64))
(declare-fun temp5789_44 () (_ BitVec 64))
(declare-fun temp5789_46 () (_ BitVec 64))
(declare-fun temp5789_45 () (_ BitVec 64))
(declare-fun temp5789_48 () (_ BitVec 64))
(declare-fun temp5789_47 () (_ BitVec 64))
(declare-fun temp5789_50 () (_ BitVec 64))
(declare-fun temp5789_49 () (_ BitVec 64))
(declare-fun temp5789_52 () (_ BitVec 64))
(declare-fun temp5789_51 () (_ BitVec 64))
(declare-fun temp5789_54 () (_ BitVec 64))
(declare-fun temp5789_53 () (_ BitVec 64))
(declare-fun temp5789_55 () (_ BitVec 64))
(declare-fun var861259 () (_ BitVec 64))
(declare-fun var861238 () (_ BitVec 64))
(declare-fun var664611 () (_ BitVec 64))
(declare-fun temp5789_56 () (_ BitVec 64))
(declare-fun temp5789_57 () (_ BitVec 64))
(declare-fun var1057842 () (_ BitVec 64))
(declare-fun temp5789_58 () (_ BitVec 64))
(declare-fun var1123378 () (_ BitVec 64))
(declare-fun temp5789_59 () (_ BitVec 64))
(declare-fun var1188914 () (_ BitVec 64))
(declare-fun temp5789_60 () (_ BitVec 64))
(declare-fun var78184 () (_ BitVec 64))
(declare-fun temp5789_62 () (_ BitVec 64))
(declare-fun temp5789_61 () (_ BitVec 64))
(declare-fun temp5789_64 () (_ BitVec 64))
(declare-fun temp5789_63 () (_ BitVec 64))
(declare-fun temp5789_65 () (_ BitVec 64))
(declare-fun var78544 () (_ BitVec 64))
(declare-fun temp5789_66 () (_ BitVec 64))
(declare-fun var78545 () (_ BitVec 64))
(assert (or (= ARGNAME_data_format_NAMEEND_STRFMT #x0000000000000000)
    (= ARGNAME_data_format_NAMEEND_STRFMT #x0000000000000001)
    (= ARGNAME_data_format_NAMEEND_STRFMT #x0000000000000002)
    (= ARGNAME_data_format_NAMEEND_STRFMT #x0000000000000003)
    (= ARGNAME_data_format_NAMEEND_STRFMT #x0000000000000004)
    (= ARGNAME_data_format_NAMEEND_STRFMT #x0000000000000005)))
(assert (= temp5789_1 #x0000000000000005))
(assert (= var77740
   (ite (= ARGNAME_filter_NAMEEND_DIM temp5789_1)
        #x0000000000000001
        #x0000000000000000)))
(assert (= temp5789_2 #x0000000000000001))
(assert (= var77740 temp5789_2))
(assert (= temp5789_3 #x0000000000000005))
(assert (= var77770
   (ite (= ARGNAME_out_backprop_NAMEEND_DIM temp5789_3)
        #x0000000000000001
        #x0000000000000000)))
(assert (= temp5789_4 #x0000000000000001))
(assert (= var77770 temp5789_4))
(assert (= temp5789_5 #x0000000000000000))
(assert (= temp5789_6 (select ARGNAME_filter_NAMEEND_DIMSIZE temp5789_5)))
(assert (= temp5789_7 #x0000000000000001))
(assert (= temp5789_8 (select ARGNAME_filter_NAMEEND_DIMSIZE temp5789_7)))
(assert (= temp5789_9 #x0000000000000002))
(assert (= temp5789_10 (select ARGNAME_filter_NAMEEND_DIMSIZE temp5789_9)))
(assert (= temp5789_11 #x0000000000000003))
(assert (= temp5789_12 (select ARGNAME_filter_NAMEEND_DIMSIZE temp5789_11)))
(assert (= temp5789_13 #x0000000000000004))
(assert (= temp5789_14 (select ARGNAME_filter_NAMEEND_DIMSIZE temp5789_13)))
(assert (= temp5789_15 #x0000000000000005))
(assert (= temp5789_16 (select ARGNAME_filter_NAMEEND_DIMSIZE temp5789_15)))
(assert (= temp5789_17 #x0000000000000003))
(assert (= temp5789_18 (select ARGNAME_filter_NAMEEND_DIMSIZE temp5789_17)))
(assert (= var77799 temp5789_18))
(assert (= temp5789_19 #x0000000000000000))
(assert (= temp5789_20 (select ARGNAME_out_backprop_NAMEEND_DIMSIZE temp5789_19)))
(assert (= temp5789_21 #x0000000000000001))
(assert (= temp5789_22 (select ARGNAME_out_backprop_NAMEEND_DIMSIZE temp5789_21)))
(assert (= temp5789_23 #x0000000000000002))
(assert (= temp5789_24 (select ARGNAME_out_backprop_NAMEEND_DIMSIZE temp5789_23)))
(assert (= temp5789_25 #x0000000000000003))
(assert (= temp5789_26 (select ARGNAME_out_backprop_NAMEEND_DIMSIZE temp5789_25)))
(assert (= temp5789_27 #x0000000000000004))
(assert (= temp5789_28 (select ARGNAME_out_backprop_NAMEEND_DIMSIZE temp5789_27)))
(assert (= temp5789_29 #x0000000000000005))
(assert (= temp5789_30 (select ARGNAME_out_backprop_NAMEEND_DIMSIZE temp5789_29)))
(assert (= temp5789_31 #x0000000000000004))
(assert (= temp5789_32 (select ARGNAME_out_backprop_NAMEEND_DIMSIZE temp5789_31)))
(assert (= var77832 temp5789_32))
(assert (= temp5789_33 #x0000000000000004))
(assert (= temp5789_34 (select ARGNAME_filter_NAMEEND_DIMSIZE temp5789_33)))
(assert (= var77833 temp5789_34))
(assert (= var77834 (ite (= var77832 var77833) #x0000000000000001 #x0000000000000000)))
(assert (= temp5789_35 #x0000000000000001))
(assert (= var77834 temp5789_35))
(assert (= temp5789_36 #x0000000000000001))
(assert (= var275510 temp5789_36))
(assert (= temp5789_37 #x0000000000000001))
(assert (= var275528
   (ite (bvslt var275510 temp5789_37) #x0000000000000001 #x0000000000000000)))
(assert (= temp5789_38 #x0000000000000000))
(assert (= var275528 temp5789_38))
(assert (= temp5789_39 #x0000000000000001))
(assert (= var406582 temp5789_39))
(assert (= temp5789_40 #x0000000000000001))
(assert (= var406600
   (ite (bvslt var406582 temp5789_40) #x0000000000000001 #x0000000000000000)))
(assert (= temp5789_41 #x0000000000000000))
(assert (= var406600 temp5789_41))
(assert (= temp5789_42 #x0000000000000001))
(assert (= var537654 temp5789_42))
(assert (= temp5789_43 #x0000000000000001))
(assert (= var537672
   (ite (bvslt var537654 temp5789_43) #x0000000000000001 #x0000000000000000)))
(assert (= temp5789_44 #x0000000000000000))
(assert (= var537672 temp5789_44))
(assert (= temp5789_46 #x0000000000000000))
(assert (= temp5789_45 temp5789_46))
(assert (= temp5789_48 #x0000000000000000))
(assert (= temp5789_47 temp5789_48))
(assert (= temp5789_50 #x00000000000000ff))
(assert (= temp5789_49 temp5789_50))
(assert (= temp5789_52 #x00000000000000ff))
(assert (= temp5789_51 temp5789_52))
(assert (= temp5789_54 #x00000000000000ff))
(assert (= temp5789_53 temp5789_54))
(assert (= temp5789_55 #x0000000000000000))
(assert (= var861259 temp5789_55))
(assert (= var861238 var861259))
(assert (= var664611 var861238))
(assert (= temp5789_56 #x0000000000000000))
(assert (= var664611 temp5789_56))
(assert (= temp5789_57 #x0000000000008000))
(assert (= var1057842 temp5789_57))
(assert (= temp5789_58 #x0000000000040000))
(assert (= var1123378 temp5789_58))
(assert (= temp5789_59 #x0000000000200000))
(assert (= var1188914 temp5789_59))
(assert (= temp5789_60 #x0000000000000001))
(assert (= var78184 temp5789_60))
(assert (= temp5789_62 #x0000000000000001))
(assert (= temp5789_61 temp5789_62))
(assert (= temp5789_64 #x0000000000000001))
(assert (= temp5789_63 temp5789_64))
(assert (= temp5789_65 #x0000000000000000))
(assert (= var78544 temp5789_65))
(assert (= temp5789_66 #x0000000000000001))
(assert (= var78545 (bvadd var78544 temp5789_66)))
(model-add temp5789_1 () (_ BitVec 64) #x0000000000000005)
(model-add temp5789_2 () (_ BitVec 64) #x0000000000000001)
(model-add var77740 () (_ BitVec 64) #x0000000000000001)
(model-del k!0)
(model-add ARGNAME_filter_NAMEEND_DIM
           ()
           (_ BitVec 64)
           (ite k!0 #x0000000000000005 (bvnot #x0000000000000005)))


